50 583 5
0 4 1
0 8 1
0 13 1
0 14 1
0 17 1
0 18 1
0 21 1
0 22 1
0 26 1
0 29 1
0 31 1
0 32 1
0 44 1
0 45 1
0 48 1
1 2 1
1 4 1
1 5 1
1 6 1
1 7 1
1 8 1
1 9 1
1 10 1
1 16 1
1 17 1
1 19 1
1 20 1
1 21 1
1 22 1
1 23 1
1 24 1
1 27 1
1 29 1
1 30 1
1 32 1
1 33 1
1 34 1
1 35 1
1 40 1
1 42 1
1 44 1
1 45 1
2 4 1
2 6 1
2 8 1
2 11 1
2 12 1
2 13 1
2 17 1
2 19 1
2 20 1
2 23 1
2 25 1
2 26 1
2 31 1
2 32 1
2 34 1
2 37 1
2 38 1
2 39 1
2 40 1
2 41 1
2 44 1
3 4 1
3 5 1
3 10 1
3 11 1
3 14 1
3 16 1
3 17 1
3 18 1
3 20 1
3 21 1
3 23 1
3 26 1
3 27 1
3 31 1
3 34 1
3 36 1
3 37 1
3 39 1
3 40 1
3 42 1
3 43 1
3 44 1
3 46 1
3 47 1
3 49 1
4 5 1
4 6 1
4 9 1
4 11 1
4 14 1
4 15 1
4 18 1
4 19 1
4 20 1
4 21 1
4 22 1
4 24 1
4 26 1
4 27 1
4 28 1
4 30 1
4 31 1
4 33 1
4 34 1
4 37 1
4 40 1
4 43 1
4 44 1
4 46 1
4 47 1
4 48 1
5 9 1
5 14 1
5 15 1
5 16 1
5 17 1
5 20 1
5 22 1
5 23 1
5 25 1
5 28 1
5 30 1
5 32 1
5 34 1
5 38 1
5 39 1
5 41 1
5 46 1
5 48 1
5 49 1
6 14 1
6 17 1
6 18 1
6 20 1
6 21 1
6 24 1
6 26 1
6 31 1
6 32 1
6 34 1
6 42 1
6 45 1
6 47 1
6 48 1
7 9 1
7 12 1
7 15 1
7 18 1
7 19 1
7 20 1
7 23 1
7 25 1
7 26 1
7 28 1
7 29 1
7 30 1
7 32 1
7 33 1
7 34 1
7 36 1
7 38 1
7 40 1
7 41 1
7 44 1
7 45 1
7 46 1
7 49 1
8 10 1
8 11 1
8 12 1
8 13 1
8 17 1
8 19 1
8 24 1
8 26 1
8 30 1
8 32 1
8 33 1
8 35 1
8 36 1
8 38 1
8 39 1
8 41 1
8 45 1
8 46 1
8 47 1
8 49 1
9 11 1
9 12 1
9 13 1
9 14 1
9 17 1
9 22 1
9 24 1
9 25 1
9 26 1
9 28 1
9 29 1
9 30 1
9 32 1
9 38 1
9 39 1
9 44 1
9 45 1
9 46 1
9 49 1
10 12 1
10 13 1
10 14 1
10 16 1
10 22 1
10 23 1
10 27 1
10 28 1
10 30 1
10 31 1
10 34 1
10 35 1
10 38 1
10 42 1
10 44 1
10 48 1
10 49 1
11 15 1
11 17 1
11 18 1
11 19 1
11 20 1
11 21 1
11 24 1
11 25 1
11 29 1
11 31 1
11 32 1
11 33 1
11 34 1
11 37 1
11 38 1
11 40 1
11 41 1
11 42 1
11 43 1
11 44 1
11 46 1
11 48 1
12 13 1
12 19 1
12 20 1
12 21 1
12 25 1
12 26 1
12 27 1
12 28 1
12 31 1
12 32 1
12 33 1
12 34 1
12 39 1
12 41 1
12 43 1
12 44 1
12 45 1
12 46 1
13 14 1
13 16 1
13 19 1
13 21 1
13 22 1
13 24 1
13 25 1
13 26 1
13 27 1
13 29 1
13 30 1
13 31 1
13 33 1
13 34 1
13 36 1
13 37 1
13 40 1
13 43 1
13 45 1
13 49 1
14 15 1
14 18 1
14 20 1
14 27 1
14 32 1
14 33 1
14 34 1
14 37 1
14 43 1
14 44 1
14 46 1
14 48 1
15 16 1
15 17 1
15 18 1
15 20 1
15 21 1
15 23 1
15 24 1
15 26 1
15 29 1
15 32 1
15 35 1
15 37 1
15 40 1
15 41 1
15 42 1
15 44 1
15 49 1
16 18 1
16 19 1
16 20 1
16 21 1
16 24 1
16 25 1
16 27 1
16 32 1
16 43 1
16 44 1
17 18 1
17 19 1
17 20 1
17 21 1
17 22 1
17 23 1
17 26 1
17 29 1
17 30 1
17 31 1
17 32 1
17 34 1
17 36 1
17 37 1
17 39 1
17 40 1
17 41 1
17 42 1
17 44 1
17 45 1
18 20 1
18 23 1
18 24 1
18 25 1
18 26 1
18 28 1
18 29 1
18 34 1
18 35 1
18 36 1
18 38 1
18 39 1
18 40 1
18 41 1
18 42 1
18 43 1
18 44 1
18 45 1
18 46 1
18 47 1
19 20 1
19 22 1
19 24 1
19 25 1
19 26 1
19 31 1
19 33 1
19 39 1
19 41 1
19 47 1
20 21 1
20 22 1
20 23 1
20 26 1
20 27 1
20 28 1
20 33 1
20 37 1
20 38 1
20 41 1
20 44 1
20 45 1
20 46 1
20 47 1
20 48 1
20 49 1
21 23 1
21 24 1
21 25 1
21 26 1
21 28 1
21 31 1
21 32 1
21 34 1
21 35 1
21 36 1
21 39 1
21 40 1
21 43 1
21 46 1
22 23 1
22 24 1
22 31 1
22 32 1
22 33 1
22 34 1
22 36 1
22 37 1
22 41 1
22 43 1
22 45 1
22 46 1
22 49 1
23 24 1
23 28 1
23 29 1
23 30 1
23 33 1
23 36 1
23 38 1
23 39 1
23 43 1
23 49 1
24 25 1
24 26 1
24 31 1
24 33 1
24 34 1
24 42 1
24 48 1
24 49 1
25 31 1
25 32 1
25 33 1
25 34 1
25 35 1
25 39 1
25 41 1
25 43 1
26 34 1
26 35 1
26 37 1
26 38 1
26 40 1
26 44 1
26 46 1
26 48 1
26 49 1
27 32 1
27 33 1
27 34 1
27 37 1
27 39 1
27 43 1
27 45 1
27 46 1
28 31 1
28 33 1
28 34 1
28 35 1
28 36 1
28 37 1
28 38 1
28 45 1
28 47 1
28 48 1
28 49 1
29 30 1
29 31 1
29 32 1
29 35 1
29 36 1
29 38 1
29 40 1
29 45 1
29 47 1
29 49 1
30 31 1
30 34 1
30 36 1
30 37 1
30 38 1
30 39 1
30 41 1
30 43 1
30 44 1
30 46 1
30 47 1
31 33 1
31 34 1
31 37 1
31 38 1
31 40 1
31 44 1
31 45 1
31 47 1
31 48 1
32 33 1
32 34 1
32 37 1
32 38 1
32 39 1
32 43 1
32 48 1
33 36 1
33 38 1
33 40 1
33 41 1
33 42 1
33 44 1
33 45 1
33 46 1
33 47 1
34 38 1
34 39 1
34 41 1
34 42 1
34 44 1
34 46 1
34 47 1
34 48 1
34 49 1
35 40 1
35 41 1
35 42 1
35 43 1
35 44 1
35 46 1
35 48 1
35 49 1
36 37 1
36 38 1
36 40 1
36 45 1
36 46 1
36 47 1
36 48 1
36 49 1
37 40 1
37 41 1
37 45 1
37 46 1
37 48 1
38 39 1
38 41 1
38 44 1
38 45 1
38 47 1
38 48 1
38 49 1
39 42 1
39 43 1
39 48 1
40 41 1
40 42 1
40 43 1
40 44 1
40 45 1
41 43 1
41 45 1
41 46 1
41 48 1
42 43 1
42 44 1
42 45 1
42 47 1
42 49 1
43 44 1
43 45 1
44 46 1
44 47 1
45 46 1
45 47 1
45 48 1
45 49 1
46 48 1
46 49 1
47 48 1
1 11 23 32 49
